1510.11 0
0 59 36 138 20 37 88 5 103 29 98 4 0
0 126 60 175 34 65 176 167 153 58 45 125 0
0 130 169 129 10 77 119 38 165 52 150 71 81 0
0 127 179 78 19 177 14 84 134 85 164 170 11 26 0
0 17 76 187 97 161 56 163 148 92 135 147 151 0
0 6 96 16 67 195 193 33 61 0
0 105 192 115 90 41 143 68 42 199 136 197 191 1 194 0
0 101 156 121 82 173 155 122 166 124 154 15 27 99 111 87 0
0 123 128 70 133 69 108 180 35 132 7 100 12 40 0
0 63 24 145 73 146 18 72 9 32 44 3 0
0 188 117 55 181 107 144 74 49 182 159 104 183 23 160 53 198 0
0 149 51 178 8 102 46 13 83 79 54 0
0 168 50 39 109 57 189 131 80 31 162 75 110 25 118 106 95 0
0 152 30 48 171 47 174 140 94 21 172 120 157 0
0 139 2 86 64 28 186 43 190 184 158 66 0
0 112 196 93 22 141 114 142 91 113 137 89 185 62 116 0
